CMD:
./solvers/bin/cadical --plain --no-reduce -t 1600 ./data/cnfs//oski15a01b13s/oski15a01b13s.48.cnf

c --- [ banner ] -------------------------------------------------------------
c 
c CaDiCaL SAT Solver
c Copyright (c) 2016-2024
c A. Biere, M. Fleury, N. Froleyks, K. Fazekas, F. Pollitt, T. Faller
c JKU Linz, University of Freiburg, TU Wien
c 
c Version 2.1.3 5296d3d2a9bf48c154ab2acb5e44625776d821bf
c g++ (Gentoo 12.3.1_p20230526 p2) 12.3.1 20230526 -Wall -Wextra -O3 -DNDEBUG
c Sat Aug 9 07:26:21 PDT 2025 Linux cedar2.int.cedar.computecanada.ca 5.14.0-362.24.2.el9_3.x86_64 x86_64
c 
c --- [ limit ] --------------------------------------------------------------
c 
c setting time limit to 1600 seconds real time (due to '-t 1600')
c 
c --- [ parsing input ] ------------------------------------------------------
c 
c reading DIMACS file from './data/cnfs//oski15a01b13s/oski15a01b13s.48.cnf'
c opening file to read './data/cnfs//oski15a01b13s/oski15a01b13s.48.cnf'
c found 'p cnf 15782675 45076952' header
c parsed 45076952 clauses in 8.72 seconds process time
c 
c --- [ options ] ------------------------------------------------------------
c 
c   --compact=false                (different from default 'true')
c   --decompose=false              (different from default 'true')
c   --deduplicate=false            (different from default 'true')
c   --elim=false                   (different from default 'true')
c   --probe=false                  (different from default 'true')
c   --reduce=false                 (different from default 'true')
c   --subsume=false                (different from default 'true')
c   --ternary=false                (different from default 'true')
c   --transred=false               (different from default 'true')
c   --vivify=false                 (different from default 'true')
c 
c --- [ solving ] ------------------------------------------------------------
c 
c time measured in process time since initialization
c 
c  seconds    reductions  redundant   irredundant
c          MB     restarts       trail          variables
c            level   conflicts       glue              remaining
c 
c *  8.72 6757  0 0   0    0    0  0% 0 42699643 12632864 80%
c { 12.29 6863  0 0   0    0    0  0% 0 42699643 12632864 80%
c i 16.38 6868 8866 0  23  129  128 24% 3 42699643 12632863 80%
c i 16.39 6868 8538 0  24  135  131 24% 3 42699643 12632862 80%
c i 16.43 6869 3719 0  25  325  306 22% 2 42699643 12632859 80%
c i 16.43 6869 3707 0  25  326  306 22% 2 42699643 12632856 80%
c i 16.50 6870 2690 0  31  459  425 21% 2 42699643 12632854 80%
c i 20.77 6875 4558 0  48  547  511 23% 3 42699643 12632852 80%
c i 20.79 6875 4514 0  49  553  514 23% 3 42699643 12632851 80%
c i 20.83 6875 4373 0  55  570  530 23% 3 42699643 12632848 80%
c i 20.83 6875 4349 0  56  574  532 23% 3 42699643 12632845 80%
c i 20.84 6875 4310 0  58  580  536 23% 3 42699643 12632842 80%
c i 20.89 6875 3669 0  64  694  616 22% 3 42699643 12632841 80%
c i 20.89 6875 3663 0  64  695  616 22% 3 42699643 12632840 80%
c i 20.90 6875 3542 0  64  719  637 22% 3 42699643 12632837 80%
c i 20.92 6875 3270 0  69  782  688 22% 3 42699643 12632834 80%
c i 20.92 6875 3265 0  69  783  688 22% 3 42699643 12632831 80%
c i 20.97 6876 3193 0  72  801  704 22% 3 42699643 12632828 80%
c i 20.98 6876 3115 0  76  821  721 22% 3 42699643 12632821 80%
c i 21.02 6876 2946 0  85  868  762 22% 3 42699643 12632819 80%
c 
c  seconds      reductions  redundant   irredundant
c          MB       restarts       trail          variables
c             level    conflicts       glue              remaining
c 
c i 21.03 6876 2939 0  86  870  763 22% 3 42699643 12632816 80%
c i 21.03 6876 2928 0  86  873  764 22% 3 42699643 12632811 80%
c i 21.04 6876 2904 0  86  880  770 22% 3 42699643 12632808 80%
c i 21.04 6876 2876 0  86  889  778 22% 3 42699643 12632805 80%
c i 21.04 6876 2857 0  86  895  782 22% 3 42699643 12632799 80%
c i 21.05 6876 2605 0  86  992  870 22% 2 42699643 12632796 80%
c i 21.05 6876 2602 0  86  993  870 22% 2 42699643 12632793 80%
c } 21.06 6876 2587 0  86 1000  876 22% 2 42699643 12632793 80%
c [ 21.06 6876  0 0  86 1000  876  0% 0 42699643 12632793 80%
c O 22.54 6877 15297 0  86 1002  878 52% 1 42699643 12632791 80%
c i 35.67 6885 22750 0  86 2208 1825 75% 8 42699643 12632788 80%
c i 35.79 6885 23482 0  86 2254 1864 75% 9 42699643 12632786 80%
c i 35.80 6885 23552 0  86 2258 1867 75% 9 42699643 12632784 80%
c i 37.67 6886 21562 0  87 2540 2006 72% 24 42699643 12632779 80%
c i 37.70 6886 21407 0  87 2549 2014 72% 25 42699643 12632776 80%
c i 37.74 6886 21356 0  87 2553 2016 72% 24 42699643 12632773 80%
c i 37.79 6886 21071 0  87 2574 2032 71% 26 42699643 12632770 80%
c i 37.79 6886 21038 0  87 2576 2033 71% 26 42699643 12632767 80%
c i 37.80 6886 20973 0  87 2580 2036 71% 26 42699643 12632761 80%
c i 38.02 6886 20431 0  87 2615 2064 70% 30 42699643 12632760 80%
c 
c  seconds       reductions  redundant    irredundant
c          MB        restarts       trail           variables
c              level    conflicts       glue               remaining
c 
c i 38.05 6886 20278 0  87 2626 2073 69% 30 42699643 12632756 80%
c ] 38.14 6886 15936 0  87 3001 2406 60% 26 42699643 12632756 80%
c { 38.14 6886 2587 0  87 3001 2406 22% 2 42699643 12632756 80%
c F 38.27 6888 2585 0  87 3003 2408 22% 2 42699643 12632756 80%
... skipped 17164 lines ...
c i 1590.06 7748 3459 0 35273 593805 475028 28% 11 34737657 12312856 78%
c i 1590.06 7748 3459 0 35273 593806 475028 28% 11 34737657 12312848 78%
c 
c   seconds       reductions       redundant     irredundant
c            MB        restarts            trail           variables
c               level       conflicts          glue               remaining
c 
c i 1590.06 7748 3459 0 35273 593816 475037 28% 11 34737657 12312839 78%
c i 1590.06 7748 3459 0 35273 593819 475039 28% 11 34737657 12312834 78%
c i 1590.06 7748 3459 0 35273 593825 475043 28% 11 34737657 12312829 78%
c i 1590.06 7748 3458 0 35273 593836 475052 28% 11 34737657 12312809 78%
c i 1590.06 7748 3458 0 35273 593843 475056 28% 11 34737657 12312788 78%
c i 1590.06 7748 3458 0 35273 593845 475056 28% 11 34737657 12312767 78%
c i 1590.07 7748 3458 0 35273 593858 475059 28% 11 34737657 12312719 78%
c i 1590.07 7748 3457 0 35273 593877 475074 28% 11 34737657 12312708 78%
c i 1590.07 7748 3457 0 35273 593880 475074 28% 11 34737657 12312688 78%
c i 1590.07 7748 3457 0 35273 593882 475074 28% 11 34737657 12312682 78%
c i 1590.07 7748 3457 0 35273 593888 475078 28% 11 34737657 12312673 78%
c i 1590.10 7748 3456 0 35273 593915 475103 28% 11 34737657 12312630 78%
c i 1590.10 7748 3456 0 35273 593918 475105 28% 11 34737657 12312627 78%
c i 1590.10 7748 3456 0 35273 593929 475115 28% 11 34737657 12312588 78%
c i 1590.10 7748 3456 0 35273 593931 475116 28% 11 34737657 12312585 78%
c i 1590.10 7748 3456 0 35273 593933 475117 28% 11 34737657 12312582 78%
c i 1590.10 7748 3455 0 35273 593943 475126 28% 11 34737657 12312546 78%
c i 1590.48 7748 3456 0 35273 593950 475131 28% 11 34737657 12312545 78%
c i 1590.60 7748 3455 0 35273 593992 475171 28% 11 34737657 12312500 78%
c i 1591.22 7748 3454 0 35273 594087 475255 28% 11 34737657 12312441 78%
c 
c   seconds       reductions       redundant     irredundant
c            MB        restarts            trail           variables
c               level       conflicts          glue               remaining
c 
c i 1591.23 7748 3453 0 35273 594113 475276 28% 11 34737657 12312435 78%
c i 1591.23 7748 3453 0 35273 594130 475292 28% 11 34737657 12312378 78%
c i 1591.23 7748 3453 0 35273 594132 475293 28% 11 34737657 12312372 78%
c i 1591.24 7748 3453 0 35273 594137 475295 28% 11 34737657 12312357 78%
c i 1591.24 7748 3453 0 35273 594146 475297 28% 11 34737657 12312343 78%
c i 1591.24 7748 3452 0 35273 594160 475308 28% 11 34737657 12312337 78%
c i 1591.24 7748 3452 0 35273 594163 475308 28% 11 34737657 12312334 78%
c i 1591.24 7748 3452 0 35273 594178 475317 28% 11 34737657 12312324 78%
c i 1591.24 7748 3452 0 35273 594181 475319 28% 11 34737657 12312315 78%
c i 1591.24 7748 3452 0 35273 594182 475319 28% 11 34737657 12312307 78%
c i 1591.24 7748 3452 0 35273 594185 475319 28% 11 34737657 12312300 78%
c i 1591.25 7748 3451 0 35273 594194 475327 28% 11 34737657 12312289 78%
c ] 1591.53 7748 3451 0 35273 594199 475331 28% 11 34737657 12312289 78%
c ? 1591.53 7748 3451 0 35273 594199 475331 28% 11 34737657 12312289 78%
c 
c --- [ result ] -------------------------------------------------------------
c 
c UNKNOWN
c 
c --- [ run-time profiling ] -------------------------------------------------
c 
c process time taken by individual solving procedures
c (percentage relative to process time for solving)
c 
c      1582.81  100.00% search
c      1122.59   70.92% unstable
c       362.07   22.87% stable
c        94.58    5.98% walk
c         8.72    0.55% parse
c         3.56    0.23% lucky
c         0.00    0.00% simplify
c   =================================
c      1582.81   99.45% solve
c 
c last line shows process time for solving
c (percentage relative to total process time)
c 
c --- [ statistics ] ---------------------------------------------------------
c 
c chronological:            356112        59.93 %  of conflicts
c conflicts:                594199       375.41    per second
c decisions:              27025330     17074.28    per second
c fixed:                   3470386        21.99 %  of all variables
c learned:                  552294        92.95 %  per conflict
c learned_lits:            9921796       100.00 %  learned literals
c minimized:                     0         0.00 %  learned literals
c shrunken:                1616880        16.30 %  learned literals
c minishrunken:             920085         9.27 %  learned literals
c otfs:                       7255         1.22 %  of conflict
c propagations:        11160169017         7.05 M  per second
c rephased:                     33     18006.03    interval
c restarts:                  35273        16.85    interval
c stabilizing:                   5        42.60 %  of conflicts
c subsumed:                  26930         0.06 %  of all clauses
c strengthened:               7163         0.02 %  of all clauses
c walked:                       10     59419.90    interval
c 
c seconds are measured in process time for solving
c 
c --- [ resources ] ----------------------------------------------------------
c 
c total process time since initialization:      1591.53    seconds
c total real time since initialization:         1600.00    seconds
c maximum resident set size of process:         9192.35    MB
c 
c --- [ shutting down ] ------------------------------------------------------
c 
c exit 0
